
  22   10
  10   10   10   10   10   10   10   10   10   10

   0   0   0   0   0   0   0   0   0   0   0   1 2 
   9  10   0   0   0   0   0   0   0   0   0   2 11 3 
   3   0   0  10   0   0   0   0   0   0   0   2 9 4 
   8  10   0   0   0   0   0   0   0   0   0   1 5 
   1   0   0   0   0   0   0   0   0  10   0   1 6 
   2  10   0   0   0   0   0   0   0   0   0   1 7 
   4   0   0   0   0  10   0   0   0   0   0   1 8 
   5   0   0   0   0   0   0   0   0  10   0   1 10 
   7   0  10   0   0   0   0   0   0   0   0   1 10 
   6   0   0   0   0   0   0   0   0  10   0   1 12 
   7   0  10   0   0   0   0   0   0   0   0   1 12 
   4   0   0   0   0   0   0   0   0  10   0   1 13 
   7   0   0   0   0  10   0   0   0   0   0   1 14 
   3   0   0   0   0   0   0   0   0   0  10   1 15 
   2   0   0   0   0   0   0   0  10   0   0   1 16 
   8   0   0   0   0   0   0   0  10   0   0   1 17 
  10   0  10   0   0   0   0   0   0   0   0   1 18 
   7   0   0   0   0   0  10   0   0   0   0   1 19 
   4   0   0   0   0   0  10   0   0   0   0   1 20 
  10   0   0   0   0   0   0   0  10   0   0   1 21 
   8  10   0   0   0   0   0   0   0   0   0   1 22
   0   0   0   0   0   0   0   0   0   0   0   0 
